
List of user-set options:

                                    Name   Value                used
                           compl_inf_tol = 1                     yes
                         constr_viol_tol = 1                     yes
                            dual_inf_tol = 1000                  yes
                           linear_solver = ma97                  yes
                              ma86_small = 1e-30                  no
                                  ma86_u = 0.0001                 no
                              ma97_order = best                  yes
                              ma97_small = 1e-30                 yes
                            ma97_switch1 = at_start              yes
                            ma97_switch2 = od_hd_reuse           yes
                                  ma97_u = 1e-06                 yes
                               ma97_umax = 0.5                   yes
                                max_iter = 1000                  yes
                    max_refinement_steps = 20                    yes
                    min_refinement_steps = 5                     yes
                                 mu_init = 1e-06                 yes
           mu_superlinear_decrease_power = 1.25                  yes
                   nlp_scaling_min_value = 1e-08                 yes
                        option_file_name = Preset_Case:_456_NCP.opt  yes
                             output_file = ./tmp/Preset_Case:_456_NCP.output  yes
                      print_user_options = yes                   yes
        required_infeasibility_reduction = 1                      no
                                     tol = 1e-08                 yes
                   warm_start_bound_frac = 1e-20                 yes
                   warm_start_bound_push = 1e-20                 yes
                   warm_start_init_point = yes                   yes
              warm_start_mult_bound_push = 1e-20                 yes
                warm_start_mult_init_max = 1e+40                 yes
             warm_start_slack_bound_frac = 1e-20                 yes
             warm_start_slack_bound_push = 1e-20                 yes

******************************************************************************
This program contains Ipopt, a library for large-scale nonlinear optimization.
 Ipopt is released as open source code under the Eclipse Public License (EPL).
         For more information visit http://projects.coin-or.org/Ipopt
******************************************************************************

This is Ipopt version 3.12.10, running with linear solver ma97.

Number of nonzeros in equality constraint Jacobian...:   117167
Number of nonzeros in inequality constraint Jacobian.:      213
Number of nonzeros in Lagrangian Hessian.............:    47513

Total number of variables............................:    29977
                     variables with only lower bounds:    11312
                variables with lower and upper bounds:    15135
                     variables with only upper bounds:        0
Total number of equality constraints.................:    29864
Total number of inequality constraints...............:       25
        inequality constraints with only lower bounds:        4
   inequality constraints with lower and upper bounds:        0
        inequality constraints with only upper bounds:       21

iter    objective    inf_pr   inf_du lg(mu)  ||d||  lg(rg) alpha_du alpha_pr  ls
   0 -1.3786009e-01 2.58e-01 2.00e+00  -6.0 0.00e+00    -  0.00e+00 0.00e+00   0
In iteration 0, 7 Slacks too small, adjusting variable bounds
   1 -1.3786009e-01 2.58e-01 3.33e+03  -6.0 1.15e+10    -  3.33e-13 1.00e-16h  1
   2 -1.3786082e-01 2.58e-01 3.33e+03  -6.0 9.25e+02    -  1.53e-03 9.07e-06f  1
   3 -1.3799334e-01 2.56e-01 3.25e+03  -6.0 1.22e+02    -  4.02e-02 8.73e-03h  1
   4 -1.3878195e-01 2.45e-01 3.12e+03  -6.0 1.24e+02    -  3.39e-02 4.27e-02h  1
   5r-1.3878195e-01 2.45e-01 1.00e+03  -0.6 0.00e+00    -  0.00e+00 3.74e-07R  3
   6r-1.3877810e-01 2.45e-01 2.42e+03  -0.6 5.70e+04    -  4.34e-06 7.18e-07f  1
   7 -1.3878622e-01 2.45e-01 2.99e+06  -6.0 1.32e+02    -  3.08e-02 5.07e-04h  1
   8 -1.3915012e-01 2.43e-01 4.09e+07  -6.0 7.42e+02    -  5.09e-04 6.85e-03h  1
   9 -1.3917697e-01 2.43e-01 4.09e+07  -6.0 7.45e+02    -  7.51e-03 5.18e-04h  1
iter    objective    inf_pr   inf_du lg(mu)  ||d||  lg(rg) alpha_du alpha_pr  ls
  10 -1.4003984e-01 2.39e-01 4.02e+07  -6.0 7.46e+02    -  1.48e-03 1.66e-02h  1
  11 -1.4092421e-01 2.35e-01 3.95e+07  -6.0 7.35e+02    -  4.32e-02 1.73e-02h  1
  12 -1.4394122e-01 2.97e-01 3.69e+07  -6.0 7.24e+02    -  1.91e-02 6.53e-02f  1
  13 -1.4570345e-01 7.66e-01 3.48e+07  -6.0 6.28e+02    -  2.69e-02 5.77e-02h  1
  14 -1.4638787e-01 7.73e-01 3.41e+07  -6.0 5.35e+02    -  7.39e-02 2.13e-02h  1
  15 -1.4692622e-01 7.82e-01 3.32e+07  -6.0 6.57e+02    -  9.92e-07 2.39e-02f  1
  16 -1.4711737e-01 7.79e-01 3.30e+07  -6.0 5.65e+02    -  2.81e-02 7.11e-03h  1
  17 -1.4753190e-01 7.76e-01 3.28e+07  -6.0 1.89e+02  -2.0 2.79e-02 7.34e-03h  1
  18 -1.4825790e-01 7.66e-01 3.23e+07  -6.0 2.14e+02  -2.5 3.84e-02 1.56e-02h  1
  19r-1.4825790e-01 7.66e-01 1.00e+03  -0.6 0.00e+00  -2.1 0.00e+00 9.20e-08R  2
iter    objective    inf_pr   inf_du lg(mu)  ||d||  lg(rg) alpha_du alpha_pr  ls
  20r-1.4828373e-01 7.66e-01 1.00e+03  -0.6 1.06e+05    -  4.07e-06 5.71e-07f  1
  21r-1.4828373e-01 7.66e-01 9.99e+02  -0.6 0.00e+00    -  0.00e+00 2.93e-07R  4
  22r-1.4829135e-01 7.66e-01 9.99e+02  -0.6 6.04e+03    -  1.79e-06 1.47e-07f  1
  23 -1.4829155e-01 7.66e-01 7.88e+01  -6.0 1.31e+02    -  2.93e-03 3.73e-05h  1
  24 -1.4829703e-01 7.65e-01 1.09e+04  -6.0 9.38e+02    -  2.28e-02 3.20e-04h  1
  25 -1.4846845e-01 7.65e-01 1.92e+05  -6.0 1.02e+03    -  5.33e-03 3.34e-03h  1
  26 -1.4879170e-01 7.62e-01 2.15e+05  -6.0 6.36e+02    -  2.05e-02 1.17e-02h  1
  27r-1.4879170e-01 7.62e-01 1.00e+03  -0.6 0.00e+00    -  0.00e+00 3.35e-08R  2
  28r-1.4879624e-01 7.62e-01 1.31e+03  -0.6 3.78e+03    -  4.15e-06 1.67e-07f  1
  29r-1.4879624e-01 7.62e-01 9.99e+02  -0.6 0.00e+00    -  0.00e+00 4.24e-07R  2
iter    objective    inf_pr   inf_du lg(mu)  ||d||  lg(rg) alpha_du alpha_pr  ls
  30r-1.4880553e-01 7.61e-01 3.21e+03  -0.6 3.92e+03    -  4.79e-06 3.86e-07f  1
  31 -1.4881570e-01 7.60e-01 3.61e+06  -6.0 1.64e+02    -  3.19e-02 1.99e-03h  1
  32 -1.4883553e-01 7.58e-01 3.64e+06  -6.0 1.64e+02    -  2.00e-03 2.01e-03h  1
  33 -1.4892303e-01 7.53e-01 3.61e+06  -6.0 1.69e+02    -  1.28e-02 8.19e-03h  1
  34 -1.4893488e-01 7.52e-01 3.60e+06  -6.0 1.90e+02    -  1.79e-02 1.10e-03h  1
  35 -1.4898943e-01 7.51e-01 3.60e+06  -6.0 5.61e+02    -  1.38e-01 1.86e-03h  1
  36 -1.5083135e-01 1.11e+00 3.31e+06  -6.0 6.14e+02    -  1.69e-02 7.95e-02h  1
  37 -1.5250357e-01 3.10e+00 2.89e+06  -6.0 4.81e+02    -  1.14e-01 1.29e-01h  1
  38 -1.5242126e-01 3.15e+00 2.81e+06  -6.0 3.60e+02    -  1.66e-01 2.49e-02h  2
  39 -1.5234914e-01 3.19e+00 2.77e+06  -6.0 4.17e+02    -  1.45e-01 1.37e-02h  1
iter    objective    inf_pr   inf_du lg(mu)  ||d||  lg(rg) alpha_du alpha_pr  ls
  40 -1.5240800e-01 3.23e+00 1.77e+07  -6.0 5.52e+02    -  2.83e-01 1.23e-02h  4
  41 -1.5496431e-01 2.50e+01 9.97e+06  -6.0 7.35e+02    -  1.84e-01 2.49e-01h  1
  42 -1.5536148e-01 2.43e+01 7.62e+07  -6.0 1.24e+02  -2.5 9.63e-02 2.79e-02h  1
  43r-1.5536148e-01 2.43e+01 1.00e+03   0.9 0.00e+00  -3.0 0.00e+00 8.38e-08R  2
  44r-1.5535277e-01 2.43e+01 1.00e+03   0.9 1.06e+06    -  2.34e-07 9.36e-09f  1
  45r-1.5509944e-01 2.43e+01 1.00e+03   0.9 1.20e+04    -  5.40e-07 6.18e-07f  1
  46 -1.5509614e-01 2.43e+01 3.42e+02  -6.0 1.05e+02    -  1.37e-06 4.68e-04h  1
  47 -1.5509547e-01 2.43e+01 4.78e+04  -6.0 4.30e+02    -  6.71e-03 4.37e-05h  1
  48 -1.5495749e-01 2.41e+01 1.59e+04  -6.0 4.45e+02    -  5.96e-04 7.01e-03h  1
  49 -1.5494462e-01 2.41e+01 1.70e+05  -6.0 4.33e+02    -  2.54e-02 6.86e-04h  1
iter    objective    inf_pr   inf_du lg(mu)  ||d||  lg(rg) alpha_du alpha_pr  ls
  50 -1.5488883e-01 2.40e+01 2.31e+05  -6.0 4.39e+02    -  1.25e-02 3.05e-03h  1
  51 -1.5392814e-01 2.22e+01 5.96e+05  -6.0 4.66e+02    -  7.47e-03 6.39e-02h  1
  52 -1.5384411e-01 2.20e+01 1.93e+06  -6.0 3.57e+02    -  3.01e-01 9.06e-03h  1
  53 -1.5358631e-01 2.14e+01 1.95e+06  -6.0 5.15e+02    -  3.63e-02 2.55e-02h  1
  54 -1.5383394e-01 1.96e+01 1.78e+06  -6.0 6.16e+02    -  8.65e-02 8.65e-02h  1
  55 -1.5378893e-01 1.94e+01 1.72e+06  -6.0 4.55e+02    -  4.73e-02 6.83e-03h  1
  56 -1.5351459e-01 1.86e+01 4.84e+08  -6.0 4.40e+02    -  3.17e-04 3.95e-02h  1
  57 -1.5343223e-01 1.85e+01 4.80e+08  -6.0 3.67e+02    -  6.39e-04 8.10e-03h  1
  58 -1.5336120e-01 1.84e+01 4.77e+08  -6.0 3.53e+02    -  6.82e-04 6.52e-03h  1
  59 -1.5317004e-01 1.81e+01 4.69e+08  -6.0 3.44e+02    -  8.25e-04 1.68e-02h  1
iter    objective    inf_pr   inf_du lg(mu)  ||d||  lg(rg) alpha_du alpha_pr  ls
  60 -1.5272329e-01 1.74e+01 4.52e+08  -6.0 3.21e+02    -  2.74e-03 3.58e-02h  1
  61 -1.5273867e-01 1.73e+01 4.50e+08  -6.0 4.26e+02    -  6.15e-02 3.95e-03h  1
  62 -1.5274145e-01 1.73e+01 4.49e+08  -6.0 4.43e+02    -  8.02e-03 2.23e-03h  1
  63 -1.5250265e-01 1.65e+01 5.94e+08  -6.0 4.14e+02    -  2.68e-04 4.68e-02h  1
  64 -1.5250127e-01 1.65e+01 5.98e+08  -6.0 3.52e+02    -  4.67e-06 4.73e-04h  1
  65 -1.5257221e-01 1.47e+01 5.29e+08  -6.0 3.66e+02    -  2.96e-02 1.04e-01h  1
  66 -1.5255347e-01 1.47e+01 5.30e+08  -6.0 3.43e+02    -  5.97e-02 1.27e-03h  1
  67 -1.5207001e-01 1.42e+01 5.12e+08  -6.0 3.78e+02    -  1.02e-02 3.57e-02h  1
  68r-1.5207001e-01 1.42e+01 1.00e+03   0.7 0.00e+00    -  0.00e+00 3.37e-08R  2
  69r-1.5207698e-01 1.42e+01 1.00e+03   0.7 1.55e+06    -  1.63e-07 1.11e-08f  1
iter    objective    inf_pr   inf_du lg(mu)  ||d||  lg(rg) alpha_du alpha_pr  ls
  70 -1.5207698e-01 1.42e+01 2.00e+00  -6.0 1.79e+02    -  1.06e-06 1.97e-06h  2
  71r-1.5207698e-01 1.42e+01 9.99e+02   0.7 0.00e+00    -  0.00e+00 2.53e-07R  4
  72r-1.5205883e-01 1.42e+01 9.99e+02   0.7 4.96e+06    -  1.31e-08 3.69e-09f  1
  73r-1.5197535e-01 1.42e+01 2.17e+04   0.7 3.14e+04    -  4.29e-07 2.84e-07f  1
  74 -1.5197031e-01 1.42e+01 6.73e+05  -6.0 1.40e+02    -  1.60e-02 8.09e-04h  1
  75r-1.5197031e-01 1.42e+01 1.00e+03   0.7 0.00e+00    -  0.00e+00 3.03e-07R  6
  76r-1.5197252e-01 1.42e+01 1.14e+03   0.7 3.92e+05    -  8.95e-07 3.03e-08f  1
  77 -1.5197307e-01 1.41e+01 1.11e+03  -6.0 1.74e+02    -  5.84e-07 6.51e-04h  1
  78 -1.5197438e-01 1.41e+01 1.12e+03  -6.0 1.79e+02    -  3.21e-02 9.09e-04h  1
  79 -1.5204963e-01 1.37e+01 1.39e+03  -6.0 1.88e+02    -  1.57e-03 2.87e-02h  1
iter    objective    inf_pr   inf_du lg(mu)  ||d||  lg(rg) alpha_du alpha_pr  ls
  80 -1.5205122e-01 1.37e+01 1.78e+03  -6.0 3.07e+02    -  6.54e-02 8.76e-05h  1
  81 -1.5374009e-01 1.26e+01 2.47e+04  -6.0 3.18e+02    -  5.49e-02 7.85e-02h  1
  82 -1.5384951e-01 1.25e+01 2.46e+04  -6.0 3.69e+02    -  1.81e-01 7.91e-03h  1
  83 -1.5854933e-01 1.38e+01 3.95e+05  -6.0 4.11e+02    -  4.15e-03 1.68e-01h  1
  84r-1.5854933e-01 1.38e+01 1.00e+03   0.7 0.00e+00    -  0.00e+00 4.11e-07R  2
  85r-1.5851146e-01 1.38e+01 1.55e+04   0.7 2.93e+04    -  9.36e-07 1.32e-07f  1
  86 -1.5851392e-01 1.38e+01 2.65e+06  -6.0 2.82e+02    -  8.26e-02 7.71e-05h  1
  87 -1.6043307e-01 1.28e+01 2.28e+09  -6.0 4.06e+02    -  8.66e-05 7.46e-02h  1
  88 -1.6112388e-01 1.15e+01 2.05e+09  -6.0 2.19e+02    -  7.40e-02 9.95e-02h  1
  89 -1.6122407e-01 1.14e+01 2.03e+09  -6.0 5.30e+02    -  2.59e-01 1.40e-02h  1
iter    objective    inf_pr   inf_du lg(mu)  ||d||  lg(rg) alpha_du alpha_pr  ls
  90 -1.6120603e-01 9.98e+00 1.71e+09  -6.0 5.16e+02    -  5.81e-02 1.54e-01h  1
  91r-1.6120603e-01 9.98e+00 1.00e+03   0.5 0.00e+00    -  0.00e+00 2.91e-07R  2
  92r-1.6165869e-01 9.99e+00 1.00e+03   0.5 1.53e+06    -  5.41e-08 5.45e-07f  1
  93 -1.6165926e-01 9.99e+00 8.69e+04  -6.0 2.60e+02    -  1.46e-01 2.60e-05h  1
  94 -1.6167004e-01 9.98e+00 9.66e+03  -6.0 2.87e+02    -  6.72e-03 7.52e-04h  1
  95 -1.6301415e-01 8.96e+00 9.43e+04  -6.0 3.42e+02    -  1.60e-01 1.41e-01h  1
  96 -1.6358200e-01 8.60e+00 9.17e+04  -6.0 1.98e+02    -  1.78e-02 4.22e-02h  1
  97 -1.6353540e-01 8.57e+00 3.54e+05  -6.0 2.49e+02    -  1.52e-01 3.38e-03h  1
  98 -1.6253582e-01 8.19e+00 3.38e+05  -6.0 2.95e+02    -  1.07e-04 4.59e-02h  1
  99 -1.5563530e-01 5.60e+00 3.81e+06  -6.0 2.79e+02    -  1.24e-01 3.47e-01H  1
iter    objective    inf_pr   inf_du lg(mu)  ||d||  lg(rg) alpha_du alpha_pr  ls
 100 -1.5113100e-01 4.61e+00 2.94e+06  -6.0 2.16e+02    -  3.72e-01 2.34e-01h  1
 101 -1.4857816e-01 4.23e+00 3.05e+06  -6.0 1.74e+02    -  1.19e-02 1.61e-01h  3
 102 -1.4726504e-01 4.10e+00 2.29e+06  -6.0 1.22e+02    -  3.85e-01 8.27e-02h  3
 103 -1.4667045e-01 3.93e+00 2.19e+06  -6.0 1.30e+02    -  6.69e-02 4.41e-02h  5
 104 -1.4642452e-01 3.86e+00 2.21e+06  -6.0 1.21e+02    -  2.80e-01 1.84e-02h  6
 105 -1.4620499e-01 3.80e+00 2.55e+06  -6.0 1.20e+02    -  9.55e-02 1.45e-02h  6
 106 -1.3993081e-01 2.43e+00 1.76e+06  -6.0 1.14e+02    -  1.02e-01 4.55e-01H  1
 107 -1.3597294e-01 7.59e-01 1.36e+06  -6.0 6.62e+01    -  5.34e-01 7.19e-01h  1
 108 -1.3606631e-01 4.35e-01 3.01e+05  -6.0 5.71e+01    -  5.37e-02 4.24e-01h  1
 109 -1.3590097e-01 4.61e-03 4.49e+04  -6.0 1.18e+01    -  5.71e-01 1.00e+00h  1
iter    objective    inf_pr   inf_du lg(mu)  ||d||  lg(rg) alpha_du alpha_pr  ls
 110 -1.3640634e-01 7.58e-02 2.57e+04  -6.0 1.02e+01    -  5.81e-01 1.00e+00h  1
 111 -1.3758051e-01 1.69e-02 9.05e+03  -6.0 9.66e+00    -  4.91e-01 1.00e+00h  1
 112 -1.3963654e-01 5.96e-02 2.75e+03  -6.0 1.82e+01    -  6.97e-01 1.00e+00h  1
 113 -1.4354498e-01 2.76e-01 1.70e+03  -6.0 5.47e+01    -  3.82e-01 9.59e-01h  1
 114 -1.4621613e-01 1.38e-01 1.07e+04  -6.0 8.82e+01    -  4.22e-01 1.00e+00f  1
 115 -1.4835329e-01 2.38e-01 9.78e+03  -6.0 1.15e+02    -  4.91e-01 3.50e-01h  1
 116 -1.5163161e-01 8.06e-01 2.98e+06  -6.0 2.26e+02    -  1.72e-03 2.95e-01h  1
 117 -1.6075324e-01 2.35e-01 1.84e+03  -6.0 2.43e+02    -  1.12e-01 1.00e+00H  1
 118 -1.6279940e-01 6.14e-01 1.60e+03  -6.0 6.50e+02    -  3.37e-01 1.29e-01h  1
 119 -1.6557241e-01 1.61e+00 1.39e+03  -6.0 5.72e+02    -  4.75e-01 1.23e-01h  1
iter    objective    inf_pr   inf_du lg(mu)  ||d||  lg(rg) alpha_du alpha_pr  ls
 120 -1.7149550e-01 1.14e+01 1.17e+03  -6.0 8.12e+02    -  1.39e-01 1.60e-01h  1
 121 -1.8898025e-01 9.25e+00 4.92e+02  -6.0 7.17e+02    -  1.76e-01 5.83e-01h  1
 122 -1.8900638e-01 8.54e+00 4.55e+02  -6.0 2.55e+01  -3.5 2.37e-04 7.68e-02h  1
 123 -1.8905373e-01 4.54e-02 1.01e+02  -6.0 2.45e+00  -4.0 7.56e-02 1.00e+00h  1
 124 -1.9050846e-01 7.72e-02 9.71e+01  -6.0 7.60e+02    -  4.28e-02 4.58e-02h  1
 125 -1.9147745e-01 8.49e-02 3.97e+01  -6.0 4.41e+02    -  5.92e-01 6.98e-02h  1
 126 -1.9689325e-01 2.19e+00 4.69e+01  -6.0 1.11e+03    -  3.20e-01 2.99e-01h  1
 127 -1.9764532e-01 4.47e-01 2.69e+01  -6.0 1.56e+02  -4.4 1.80e-04 1.00e+00h  1
 128 -2.0468976e-01 3.67e+00 5.76e+01  -6.0 5.39e+03    -  2.19e-01 9.79e-02h  1
 129 -2.0930898e-01 6.31e+00 1.39e+04  -6.0 1.75e+03    -  1.42e-01 3.08e-01h  1
iter    objective    inf_pr   inf_du lg(mu)  ||d||  lg(rg) alpha_du alpha_pr  ls
 130 -2.0942327e-01 5.33e+00 2.88e+05  -6.0 9.89e+00  -4.9 4.85e-05 1.54e-01h  1
 131 -2.0954033e-01 3.20e+00 1.73e+05  -6.0 1.16e+01  -5.4 3.76e-01 4.00e-01h  1
 132 -2.1000674e-01 4.27e-01 2.30e+04  -6.0 1.37e+01  -5.9 7.76e-01 8.67e-01h  1
 133 -2.1115411e-01 1.03e-01 5.56e+03  -6.0 1.83e+01  -6.3 9.98e-01 7.58e-01h  1
 134 -2.1325709e-01 2.32e-01 4.66e+03  -6.0 1.76e+02  -6.8 2.29e-01 1.61e-01h  1
 135 -2.1368760e-01 1.65e-01 8.82e+02  -6.0 8.02e+01  -7.3 9.96e-04 8.12e-01h  1
 136 -2.1633650e-01 2.75e-01 1.73e+02  -6.0 1.38e+02  -7.8 6.88e-01 9.57e-01f  1
 137 -2.1631917e-01 2.72e-01 1.71e+02  -6.0 7.18e+00  -2.8 9.40e-03 1.07e-02h  1
 138 -2.1630785e-01 2.72e-01 1.70e+02  -6.0 1.89e+02  -3.3 4.13e-05 2.31e-04h  1
 139 -2.1630570e-01 2.72e-01 1.69e+02  -6.0 2.64e+00  -2.0 4.33e-03 2.14e-03h  1
iter    objective    inf_pr   inf_du lg(mu)  ||d||  lg(rg) alpha_du alpha_pr  ls
 140 -2.1630145e-01 2.71e-01 1.69e+02  -6.0 4.76e+00  -2.5 5.52e-03 2.51e-03h  1
 141 -2.1628863e-01 2.67e-01 1.67e+02  -6.0 2.35e+00  -2.0 1.39e-02 1.34e-02h  1
 142 -2.1625870e-01 2.62e-01 1.63e+02  -6.0 3.23e+00  -2.5 1.41e-02 2.13e-02h  1
 143 -2.1625331e-01 2.61e-01 1.68e+02  -6.0 5.00e+00  -3.0 4.87e-02 3.05e-03h  1
 144 -2.1622736e-01 2.60e-01 1.67e+02  -6.0 4.43e+01  -3.5 4.19e-03 4.36e-03h  1
 145 -2.1583650e-01 1.86e-01 1.13e+02  -6.0 3.06e+00  -3.0 2.46e-03 2.92e-01h  1
 146 -2.1534421e-01 1.33e-01 7.48e+01  -6.0 3.85e+00  -2.6 1.47e-02 3.05e-01h  1
 147 -2.1543209e-01 1.10e-01 7.12e+01  -6.0 6.38e+00  -3.1 4.99e-02 1.72e-01f  1
 148 -2.1542063e-01 1.07e-01 6.98e+01  -6.0 8.88e-01  -1.8 5.36e-03 2.65e-02h  1
 149 -2.1541366e-01 9.90e-02 6.62e+01  -6.0 5.73e-01  -1.3 3.07e-02 7.55e-02h  1
iter    objective    inf_pr   inf_du lg(mu)  ||d||  lg(rg) alpha_du alpha_pr  ls
 150 -2.1534049e-01 4.11e-02 2.82e+02  -6.0 5.63e-01  -1.8 7.78e-03 5.87e-01h  1
 151 -2.1529676e-01 5.74e-04 8.82e+00  -6.0 1.60e-01  -2.3 6.89e-01 1.00e+00h  1
 152 -2.1531908e-01 4.95e-05 1.31e+00  -6.0 5.90e-02  -2.8 8.70e-01 9.67e-01h  1
 153 -2.1539836e-01 4.97e-04 4.64e+00  -6.0 1.64e-01  -3.2 3.19e-01 1.00e+00f  1
 154 -2.1542775e-01 4.77e-04 4.27e+00  -6.0 3.82e-01  -3.7 6.27e-01 1.67e-01h  1
 155 -2.1569547e-01 6.83e-03 6.36e+00  -6.0 9.18e-01  -4.2 5.90e-01 6.64e-01f  1
 156 -2.1606112e-01 1.74e-02 2.64e+01  -6.0 1.37e+00  -4.7 4.44e-01 5.98e-01f  1
 157 -2.1619938e-01 1.69e-02 2.41e+01  -6.0 2.14e+00  -5.2 2.56e-01 3.13e-01f  1
 158 -2.1623644e-01 1.75e-02 3.72e+01  -6.0 3.53e+00  -5.6 9.88e-01 7.35e-02f  1
 159 -2.1657262e-01 9.33e-01 5.17e+01  -6.0 6.26e+00  -6.1 3.28e-01 9.39e-01f  1
iter    objective    inf_pr   inf_du lg(mu)  ||d||  lg(rg) alpha_du alpha_pr  ls
 160 -2.1669922e-01 4.80e-01 2.35e+01  -6.0 1.37e+01  -6.6 5.43e-01 5.56e-01h  1
 161 -2.1669922e-01 4.80e-01 2.34e+01  -6.0 3.86e+01  -7.1 1.99e-06 7.04e-07h  2
 162 -2.1669922e-01 4.80e-01 2.67e+01  -6.0 1.10e+00  -1.2 8.43e-02 1.42e-05h  1
 163 -2.1669276e-01 4.31e-01 2.46e+01  -6.0 1.44e+00  -1.7 1.17e-01 1.01e-01h  1
 164 -2.1668203e-01 3.84e-01 2.40e+01  -6.0 1.29e+00  -2.2 7.32e-02 1.08e-01h  1
 165 -2.1655237e-01 3.13e-03 9.17e+01  -6.0 1.14e+00  -2.6 1.66e-01 1.00e+00h  1
 166 -2.1658109e-01 9.77e-04 1.59e+01  -6.0 8.69e-02  -3.1 1.00e+00 6.91e-01h  1
 167 -2.1660083e-01 5.48e-04 4.97e+01  -6.0 1.61e-01  -3.6 1.00e+00 4.39e-01f  1
 168 -2.1663221e-01 3.00e-04 3.18e+01  -6.0 2.30e-01  -4.1 1.00e+00 4.92e-01f  1
 169 -2.1664126e-01 3.63e-04 1.88e+01  -6.0 3.14e-01  -4.6 1.00e+00 4.27e-01f  1
iter    objective    inf_pr   inf_du lg(mu)  ||d||  lg(rg) alpha_du alpha_pr  ls
 170 -2.1666229e-01 2.96e-03 1.30e+01  -6.0 5.95e-01  -5.0 1.00e+00 5.16e-01f  1
 171 -2.1667707e-01 5.18e-03 8.70e-02  -6.0 1.16e+00  -5.5 1.00e+00 1.00e+00f  1
 172 -2.1669782e-01 1.63e-02 1.11e-01  -6.0 3.45e+00  -6.0 7.10e-01 7.00e-01h  1
 173 -2.1678667e-01 1.51e-01 2.70e-01  -6.0 1.01e+01  -6.5 1.00e+00 1.00e+00f  1
 174 -2.1715652e-01 6.85e-01 1.05e+00  -6.0 2.95e+01  -6.9 1.00e+00 1.00e+00h  1
 175 -2.1856268e-01 1.08e+01 1.97e+01  -6.0 1.49e+02  -7.4 4.65e-01 1.00e+00h  1
 176 -2.1895266e-01 8.88e+00 1.41e+01  -6.0 6.56e+01  -7.0 8.30e-01 3.37e-01h  1
 177 -2.1896394e-01 8.84e+00 1.40e+01  -6.0 9.41e+01  -7.5 6.19e-01 4.97e-03h  1
 178 -2.2354298e-01 5.14e+00 2.71e+01  -6.0 2.65e+02  -7.9 1.00e+00 1.00e+00h  1
 179 -2.2635741e-01 4.06e+00 4.04e+01  -6.0 8.03e+02  -8.4 7.61e-01 2.80e-01h  1
iter    objective    inf_pr   inf_du lg(mu)  ||d||  lg(rg) alpha_du alpha_pr  ls
 180 -2.3297111e-01 2.89e+00 3.52e+01  -6.0 2.30e+03  -8.9 2.29e-01 3.10e-01h  1
 181 -2.3505864e-01 2.06e+00 4.40e+01  -6.0 7.73e+02  -8.5 1.00e+00 2.92e-01h  1
 182 -2.3865520e-01 3.80e+00 1.31e+02  -6.0 1.15e+03  -9.0 4.94e-01 3.79e-01h  1
 183 -2.3872801e-01 3.77e+00 1.30e+02  -6.0 1.30e+04  -9.4 9.78e-03 6.81e-03h  1
 184 -2.3949652e-01 2.76e+00 9.75e+01  -6.0 5.64e+02  -9.0 3.04e-01 2.56e-01h  1
 185 -2.4041156e-01 1.37e+00 3.58e+01  -6.0 2.44e+02  -8.6 1.00e+00 6.12e-01f  1
 186 -2.4106125e-01 1.30e+00 2.25e+01  -6.0 4.15e+02  -9.1 4.04e-01 4.20e-01h  1
 187 -2.4136271e-01 7.92e-01 4.35e+01  -6.0 1.61e+02  -8.6 2.52e-01 4.59e-01h  1
 188 -2.4156191e-01 7.12e-01 1.80e+02  -6.0 1.15e+03  -9.1 6.45e-01 2.02e-01h  1
 189 -2.4190442e-01 6.26e+00 1.16e+02  -6.0 3.42e+02  -8.7 7.96e-01 1.00e+00h  1
iter    objective    inf_pr   inf_du lg(mu)  ||d||  lg(rg) alpha_du alpha_pr  ls
 190 -2.4236700e-01 8.83e-01 1.41e+02  -6.0 1.31e+02  -8.3 5.18e-01 1.00e+00h  1
 191 -2.4239027e-01 8.61e-01 2.09e+02  -6.0 4.30e+02  -8.7 1.44e-01 2.98e-02h  1
 192 -2.4268813e-01 7.26e-01 1.44e+03  -6.0 7.28e+02  -9.2 5.94e-01 2.77e-01h  1
 193 -2.4307776e-01 3.19e+01 9.03e+02  -6.0 1.25e+04  -9.7 4.10e-02 1.09e-01h  1
 194 -2.4363839e-01 1.03e+01 1.77e+03  -6.0 4.93e+02  -9.3 3.68e-01 6.78e-01h  1
 195 -2.4402418e-01 7.43e+00 5.42e+03  -6.0 1.32e+03  -9.7 9.49e-02 2.78e-01h  1
 196 -2.4479489e-01 3.04e+00 1.77e+04  -6.0 1.36e+03  -9.3 2.06e-01 6.41e-01h  1
 197 -2.4541187e-01 4.29e+00 3.19e+06  -6.0 4.28e+02  -8.9 4.86e-03 1.00e+00h  1
 198 -2.4618540e-01 1.02e+01 2.40e+06  -6.0 1.71e+03  -9.4 1.29e-01 2.49e-01h  1
 199 -2.4722559e-01 1.29e+01 1.83e+06  -6.0 3.13e+03  -9.8 3.30e-01 2.39e-01h  1
iter    objective    inf_pr   inf_du lg(mu)  ||d||  lg(rg) alpha_du alpha_pr  ls
 200 -2.4817759e-01 1.22e+01 1.53e+06  -6.0 5.36e+03 -10.3 1.45e-01 1.62e-01h  1
 201 -2.4835495e-01 1.16e+01 1.44e+06  -6.0 3.16e+03  -9.9 9.48e-02 5.55e-02h  1
 202 -2.4859605e-01 8.94e+00 1.11e+06  -6.0 1.45e+03  -9.5 9.94e-02 2.33e-01h  1
 203 -2.4882158e-01 7.86e+00 9.75e+05  -6.0 3.18e+03  -9.9 1.82e-01 1.21e-01h  1
 204 -2.4901011e-01 6.30e+00 7.80e+05  -6.0 1.75e+03  -9.5 1.99e-01 1.99e-01h  1
 205 -2.4910077e-01 5.48e+00 6.80e+05  -6.0 2.76e+03 -10.0 1.48e-01 1.29e-01h  1
 206 -2.4909936e-01 5.36e+00 6.16e+05  -6.0 2.17e+03  -9.6 1.13e-01 9.30e-02h  1
 207 -2.4935734e-01 5.32e+00 6.11e+05  -6.0 9.30e+04 -10.0 2.38e-02 8.37e-03h  1
 208 -2.4971978e-01 6.27e+00 4.60e+05  -6.0 2.04e+03  -9.6 6.13e-02 2.47e-01h  1
 209 -2.5030706e-01 4.61e+00 2.69e+05  -6.0 5.15e+02  -9.2 7.07e-01 4.14e-01h  1
iter    objective    inf_pr   inf_du lg(mu)  ||d||  lg(rg) alpha_du alpha_pr  ls
 210 -2.5146606e-01 2.01e+01 2.56e+05  -6.0 1.78e+04  -9.7 3.39e-02 4.94e-02h  1
 211 -2.5155743e-01 1.72e+01 2.19e+05  -6.0 3.46e+03 -10.1 1.60e-01 1.45e-01h  1
 212 -2.5228499e-01 1.80e+01 1.96e+05  -6.0 3.32e+03  -9.7 5.71e-02 1.03e-01h  1
 213 -2.5444383e-01 1.87e+01 8.13e+04  -6.0 1.21e+03  -9.3 5.35e-01 5.85e-01h  1
 214 -2.5498916e-01 1.97e+01 7.55e+04  -6.0 1.17e+04    -  3.77e-02 7.08e-02h  1
 215 -2.5540676e-01 1.80e+01 6.81e+04  -6.0 1.46e+03  -8.9 7.94e-02 9.87e-02h  1
 216 -2.5579805e-01 1.68e+01 6.25e+04  -6.0 1.20e+03  -9.3 2.64e-02 8.19e-02h  1
 217 -2.5621059e-01 1.73e+01 5.95e+04  -6.0 6.65e+03    -  1.04e-01 4.84e-02h  1
 218 -2.5697670e-01 1.64e+01 5.04e+04  -6.0 5.91e+03    -  3.85e-01 1.52e-01h  1
 219 -2.5824330e-01 1.16e+01 3.56e+04  -6.0 2.42e+03  -9.8 1.20e-02 2.91e-01h  1
iter    objective    inf_pr   inf_du lg(mu)  ||d||  lg(rg) alpha_du alpha_pr  ls
 220 -2.5902915e-01 8.80e+00 2.69e+04  -6.0 1.83e+03  -9.4 1.44e-01 2.43e-01h  1
 221 -2.5984936e-01 4.54e+00 1.38e+04  -6.0 1.35e+03  -9.9 7.59e-02 4.89e-01h  1
 222 -2.5998869e-01 4.37e+00 1.33e+04  -6.0 3.02e+03 -10.4 9.06e-02 3.84e-02h  1
 223 -2.6044136e-01 3.74e+00 7.18e+03  -6.0 9.70e+02  -9.9 3.40e-01 4.60e-01h  1
 224 -2.6055821e-01 2.65e+00 6.63e+05  -6.0 3.17e+02  -9.5 4.00e-03 3.13e-01h  1
 225 -2.6061768e-01 2.34e+01 3.45e+05  -6.0 3.40e+03 -10.0 1.20e-01 4.80e-01H  1
 226 -2.6059753e-01 1.84e+01 2.68e+05  -6.0 7.09e+02 -10.5 2.62e-01 2.24e-01h  1
 227 -2.6064699e-01 4.84e+01 3.55e+02  -6.0 1.65e+03 -10.0 1.02e-01 1.00e+00h  1
 228 -2.6037838e-01 1.90e+00 3.03e+02  -6.0 1.43e+02  -7.8 5.95e-02 1.00e+00h  1
 229 -2.6078793e-01 5.55e+00 1.92e+01  -6.0 1.18e+02  -8.3 5.29e-01 1.00e+00h  1
iter    objective    inf_pr   inf_du lg(mu)  ||d||  lg(rg) alpha_du alpha_pr  ls
 230 -2.6091885e-01 4.11e+00 2.95e+01  -6.0 4.46e+02  -8.7 4.76e-01 2.70e-01h  1
 231 -2.6116431e-01 9.01e-01 3.64e+02  -6.0 2.16e+02  -9.2 8.78e-01 1.00e+00h  1
 232 -2.6121070e-01 2.23e+00 1.42e+03  -6.0 1.13e+03  -9.7 4.80e-01 2.54e-01h  1
 233 -2.6122704e-01 1.42e+00 3.25e+02  -6.0 2.79e+02  -9.3 4.92e-01 5.90e-01h  1
 234 -2.6118197e-01 1.21e+00 9.14e+05  -6.0 2.19e+02  -9.8 8.05e-03 1.00e+00h  1
 235 -2.6117888e-01 1.07e+00 8.03e+05  -6.0 8.51e+02 -10.2 1.00e+00 1.21e-01h  2
 236 -2.6117814e-01 1.06e+00 8.01e+05  -6.0 8.34e+04    -  3.50e-02 2.17e-03h  2
 237 -2.6109194e-01 3.73e+00 1.54e+05  -6.0 1.54e+03    -  1.00e+00 8.08e-01h  1
 238 -2.6105383e-01 2.22e+00 6.81e+04  -6.0 3.33e+02    -  5.28e-01 5.57e-01h  1
 239 -2.6101750e-01 4.04e-02 5.97e+00  -6.0 1.16e+02    -  1.00e+00 1.00e+00h  1
iter    objective    inf_pr   inf_du lg(mu)  ||d||  lg(rg) alpha_du alpha_pr  ls
 240 -2.6100910e-01 3.29e-03 1.47e-02  -6.0 1.17e+01    -  1.00e+00 1.00e+00h  1
 241 -2.6100872e-01 1.59e-07 2.50e-06  -6.0 6.83e-02    -  1.00e+00 1.00e+00h  1
 242 -2.6156874e-01 2.30e+00 3.23e+01  -7.5 2.48e+03    -  3.59e-01 2.46e-01h  1
 243 -2.6164881e-01 2.26e+00 4.40e+01  -7.5 2.00e+03    -  1.25e-01 5.19e-02h  1
 244 -2.6180157e-01 2.40e+00 5.52e+01  -7.5 2.20e+03    -  1.50e-01 1.11e-01h  1
 245 -2.6180229e-01 2.06e+00 1.34e+02  -7.5 2.26e-01  -2.4 8.92e-02 1.41e-01h  1
 246 -2.6180220e-01 2.02e+00 5.31e+02  -7.5 1.94e-01  -2.9 2.46e-03 2.21e-02h  1
 247 -2.6180188e-01 1.85e+00 7.37e+02  -7.5 1.90e-01  -3.3 1.69e-01 8.05e-02h  1
 248 -2.6179297e-01 1.08e+00 2.60e+03  -7.5 2.80e-01  -3.8 5.01e-02 4.19e-01h  1
 249 -2.6180047e-01 1.06e+00 2.45e+03  -7.5 1.19e+00  -4.3 1.69e-02 1.20e-02h  1
iter    objective    inf_pr   inf_du lg(mu)  ||d||  lg(rg) alpha_du alpha_pr  ls
 250 -2.6180046e-01 1.06e+00 2.45e+03  -7.5 1.00e-01   1.5 7.83e-04 6.02e-04h  1
 251 -2.6180000e-01 1.04e+00 2.39e+03  -7.5 1.00e-01   1.1 8.11e-05 2.55e-02h  1
 252 -2.6179999e-01 1.04e+00 2.46e+03  -7.5 9.83e-02   0.6 6.29e-02 2.28e-04h  1
 253 -2.6179933e-01 9.94e-01 2.35e+03  -7.5 9.74e-02   0.1 2.52e-02 4.09e-02h  1
 254 -2.6179891e-01 9.81e-01 2.33e+03  -7.5 9.34e-02  -0.4 3.97e-02 1.31e-02h  1
 255 -2.6179706e-01 9.27e-01 2.22e+03  -7.5 9.22e-02  -0.8 9.96e-02 5.58e-02h  1
 256 -2.6179459e-01 8.47e-01 2.11e+03  -7.5 8.70e-02  -1.3 2.48e-01 8.60e-02h  1
 257 -2.6179245e-01 7.56e-01 1.97e+03  -7.5 7.95e-02  -1.8 3.47e-01 1.07e-01h  1
 258 -2.6178519e-01 5.39e-01 1.43e+03  -7.5 7.42e-02  -2.3 4.39e-01 2.88e-01h  1
 259 -2.6177917e-01 2.06e-01 4.78e+02  -7.5 6.32e-02  -2.7 1.00e+00 6.17e-01h  1
iter    objective    inf_pr   inf_du lg(mu)  ||d||  lg(rg) alpha_du alpha_pr  ls
 260 -2.6178932e-01 1.14e-01 3.33e+02  -7.5 1.35e-01  -3.2 1.99e-01 4.49e-01h  1
 261 -2.6179121e-01 1.10e-01 9.48e+01  -7.5 3.53e-01  -3.7 1.00e+00 3.32e-02h  1
 262 -2.6179643e-01 3.52e-02 3.70e+01  -7.5 1.89e-01  -4.2 1.00e+00 6.80e-01h  1
 263 -2.6179915e-01 3.03e-02 1.17e+01  -7.5 3.22e-01  -4.7 1.00e+00 1.38e-01h  1
 264 -2.6180141e-01 5.61e-04 3.82e-01  -7.5 6.74e-02  -4.2 1.00e+00 1.00e+00h  1
 265 -2.6180977e-01 4.63e-03 3.29e-02  -7.5 2.06e-01  -4.7 1.00e+00 1.00e+00h  1
 266 -2.6182479e-01 2.00e-02 9.97e-03  -7.5 5.73e-01  -5.2 6.76e-01 6.74e-01h  1
 267 -2.6184107e-01 4.52e-02 1.03e+03  -7.5 1.53e+00  -5.7 2.47e-02 3.16e-01f  1
 268 -2.6184107e-01 4.52e-02 1.03e+03  -7.5 2.68e-01   0.2 6.62e-02 7.90e-04h  1
 269 -2.6184133e-01 2.20e-02 6.10e+02  -7.5 3.26e-02  -0.3 1.97e-03 5.14e-01f  1
iter    objective    inf_pr   inf_du lg(mu)  ||d||  lg(rg) alpha_du alpha_pr  ls
 270 -2.6184133e-01 2.14e-02 5.93e+02  -7.5 2.98e-03   0.1 8.54e-01 2.78e-02h  1
 271 -2.6184128e-01 1.40e-02 3.90e+02  -7.5 2.24e-03   0.6 1.00e+00 3.43e-01h  1
 272 -2.6184128e-01 1.38e-02 3.84e+02  -7.5 3.62e-03   0.1 1.00e+00 1.37e-02h  1
 273 -2.6184142e-01 2.57e-03 7.44e+01  -7.5 1.10e-02  -0.4 1.00e+00 1.00e+00h  1
 274 -2.6184143e-01 1.76e-05 2.53e-01  -7.5 2.53e-03  -0.9 1.00e+00 1.00e+00h  1
 275 -2.6184148e-01 4.08e-07 7.81e-01  -7.5 4.42e-04  -1.3 1.00e+00 6.12e-01h  1
 276 -2.6184146e-01 1.22e-08 5.62e-04  -7.5 7.54e-04  -1.8 1.00e+00 1.00e+00f  1
 277 -2.6184147e-01 7.30e-08 3.47e-03  -7.5 1.21e-03  -2.3 1.00e+00 1.00e+00h  1
 278 -2.6184151e-01 7.20e-07 1.45e-03  -7.5 2.22e-03  -2.8 1.00e+00 1.00e+00h  1
 279 -2.6184169e-01 6.74e-06 1.90e-02  -7.5 6.54e-03  -3.3 1.00e+00 1.00e+00h  1
iter    objective    inf_pr   inf_du lg(mu)  ||d||  lg(rg) alpha_du alpha_pr  ls
 280 -2.6184231e-01 6.14e-05 2.05e-01  -7.5 2.09e-02  -3.7 1.00e+00 1.00e+00h  1
 281 -2.6184422e-01 5.38e-04 1.76e+00  -7.5 6.27e-02  -4.2 1.00e+00 1.00e+00h  1
 282 -2.6184930e-01 3.88e-03 5.88e+00  -7.5 1.77e-01  -4.7 1.00e+00 9.33e-01h  1
 283 -2.6185356e-01 5.66e-03 4.76e+00  -7.5 4.76e-01  -5.2 1.00e+00 2.87e-01f  1
 284 -2.6185776e-01 9.66e-03 3.70e+00  -7.5 1.49e+00  -5.6 1.00e+00 1.45e-01f  1
 285 -2.6187593e-01 1.13e-01 2.76e+00  -7.5 4.22e+00  -6.1 1.00e+00 2.56e-01h  1
 286 -2.6187976e-01 9.90e-02 8.16e+00  -7.5 4.24e+00  -6.6 5.05e-02 1.25e-01h  1
 287 -2.6188656e-01 9.05e-02 7.48e+00  -7.5 1.26e+01  -7.1 9.48e-01 8.64e-02f  1
 288 -2.6200062e-01 3.71e-02 1.43e+00  -7.5 3.68e+01  -7.6 7.59e-01 6.75e-01h  1
 289 -2.6199375e-01 5.84e-03 1.77e+01  -7.5 5.24e-02  -4.4 8.18e-01 8.43e-01h  1
iter    objective    inf_pr   inf_du lg(mu)  ||d||  lg(rg) alpha_du alpha_pr  ls
 290 -2.6199375e-01 5.83e-03 2.29e+01  -7.5 8.46e-02  -4.9 6.47e-01 1.54e-03h  1
 291 -2.6199384e-01 5.19e-06 3.75e+00  -7.5 2.55e-01  -5.4 7.79e-01 1.00e+00f  1
 292 -2.6199384e-01 5.18e-06 3.09e+00  -7.5 1.10e-01  -4.9 2.36e-01 7.54e-04h  1
 293 -2.6199384e-01 5.07e-06 6.49e+00  -7.5 3.33e-01  -4.5 2.77e-01 2.15e-02F  1
 294 -2.6199439e-01 9.77e-07 1.24e+00  -7.5 1.07e-01  -5.0 1.00e+00 1.00e+00f  1
 295 -2.6199604e-01 9.02e-06 3.15e+00  -7.5 3.19e-01  -5.5 1.00e+00 1.00e+00h  1
 296 -2.6200090e-01 7.38e-05 3.08e+00  -7.5 9.59e-01  -5.9 1.00e+00 1.00e+00h  1
 297 -2.6201478e-01 5.52e-04 2.95e+00  -7.5 2.87e+00  -6.4 9.95e-01 1.00e+00h  1
 298 -2.6205333e-01 4.11e-03 1.06e+01  -7.5 8.56e+00  -6.9 1.00e+00 1.00e+00h  1
 299 -2.6208038e-01 8.29e-03 7.96e+00  -7.5 2.62e+01  -7.4 2.91e-01 1.98e-01h  1
iter    objective    inf_pr   inf_du lg(mu)  ||d||  lg(rg) alpha_du alpha_pr  ls
 300 -2.6214334e-01 2.25e-02 7.16e+01  -7.5 6.88e+01  -7.9 1.00e+00 3.03e-01f  1
 301 -2.6227881e-01 9.52e-02 4.70e+01  -7.5 1.90e+02  -8.3 2.99e-01 3.21e-01h  1
 302 -2.6227881e-01 9.52e-02 4.70e+01  -7.5 3.61e+02  -8.8 6.92e-07 2.55e-07h  2
 303 -2.6227889e-01 9.30e-02 7.12e+01  -7.5 6.39e-01  -1.0 5.72e-03 2.28e-02h  1
 304 -2.6227888e-01 9.29e-02 7.33e+01  -7.5 2.81e-02  -0.5 2.69e-02 1.37e-03h  1
 305 -2.6227886e-01 9.25e-02 7.56e+01  -7.5 2.95e-02  -1.0 5.72e-02 4.25e-03h  1
 306 -2.6227832e-01 7.86e-02 6.28e+01  -7.5 3.69e-02  -1.5 9.94e-02 1.50e-01h  1
 307 -2.6227793e-01 6.91e-02 5.89e+01  -7.5 4.13e-02  -2.0 3.29e-01 1.21e-01h  1
 308 -2.6227706e-01 4.70e-02 3.82e+01  -7.5 4.67e-02  -2.5 8.09e-02 3.19e-01h  1
 309 -2.6227704e-01 4.67e-02 4.07e+01  -7.5 2.19e-02  -1.1 1.01e-01 6.10e-03h  1
iter    objective    inf_pr   inf_du lg(mu)  ||d||  lg(rg) alpha_du alpha_pr  ls
 310 -2.6227698e-01 4.61e-02 4.65e+01  -7.5 1.41e-02  -0.7 4.65e-01 1.37e-02h  1
 311 -2.6227586e-01 2.90e-02 2.93e+01  -7.5 1.39e-02  -1.2 1.30e-01 3.70e-01h  1
 312 -2.6227461e-01 9.05e-03 9.14e+00  -7.5 8.64e-03  -1.6 6.82e-01 6.88e-01h  1
 313 -2.6227465e-01 8.35e-03 5.86e+01  -7.5 7.94e-03  -2.1 1.00e+00 7.79e-02h  1
 314 -2.6227451e-01 2.52e-03 2.54e+00  -7.5 4.33e-03  -2.6 1.00e+00 6.98e-01h  1
 315 -2.6227507e-01 1.92e-06 5.65e-03  -7.5 1.33e-02  -3.1 1.00e+00 1.00e+00f  1
 316 -2.6227530e-01 1.87e-06 9.40e-02  -7.5 2.92e-02  -3.6 1.00e+00 1.23e-01h  2
 317 -2.6227552e-01 3.85e-06 3.14e-01  -7.5 2.96e-02  -4.0 1.00e+00 1.87e-01h  2
 318 -2.6227601e-01 2.20e-05 1.68e-01  -7.5 4.37e-02  -4.5 1.00e+00 5.20e-01h  1
 319 -2.6227676e-01 1.43e-05 5.70e-02  -7.5 9.02e-02  -5.0 1.00e+00 7.06e-01f  1
iter    objective    inf_pr   inf_du lg(mu)  ||d||  lg(rg) alpha_du alpha_pr  ls
 320 -2.6227839e-01 1.76e-05 9.51e-03  -7.5 2.97e-01  -5.5 1.00e+00 1.00e+00f  1
 321 -2.6228381e-01 1.82e-04 2.43e-04  -7.5 8.92e-01  -5.9 1.00e+00 1.00e+00h  1
 322 -2.6228861e-01 2.88e-04 1.05e-01  -7.5 2.78e+00  -6.4 1.00e+00 2.87e-01h  1
 323 -2.6232099e-01 8.70e-03 2.56e-01  -7.5 8.70e+00  -6.9 8.80e-01 5.71e-01f  1
 324 -2.6237657e-01 1.24e-02 1.08e+00  -7.5 2.34e+01  -7.4 1.00e+00 1.00e+00f  1
 325 -2.6242124e-01 1.12e-02 1.53e+02  -7.5 7.00e+01  -7.9 9.50e-02 1.26e-01h  1
 326 -2.6246953e-01 1.79e-02 2.91e+02  -7.5 1.61e+02  -8.3 1.91e-01 1.43e-01h  1
 327 -2.6265064e-01 1.47e-01 4.01e+05  -7.5 2.89e+02  -8.8 3.75e-04 3.22e-01f  1
 328 -2.6270608e-01 4.65e-01 3.79e+05  -7.5 2.21e+03    -  7.66e-03 5.47e-02h  1
 329 -2.6271229e-01 4.63e-01 3.75e+05  -7.5 2.10e+03    -  3.31e-04 1.09e-02h  1
iter    objective    inf_pr   inf_du lg(mu)  ||d||  lg(rg) alpha_du alpha_pr  ls
 330 -2.6271130e-01 4.60e-01 3.73e+05  -7.5 6.95e+02  -9.3 1.35e-02 4.86e-03h  1
 331 -2.6274409e-01 7.27e-01 3.45e+05  -7.5 2.38e+03    -  3.01e-02 7.50e-02f  1
 332 -2.6280790e-01 7.47e-01 2.98e+05  -7.5 2.09e+03    -  3.36e-01 1.37e-01h  1
 333 -2.6289462e-01 2.20e+00 2.01e+05  -7.5 2.08e+03    -  4.70e-01 3.27e-01h  1
 334 -2.6286817e-01 5.74e-02 6.38e+01  -7.5 5.61e+01  -8.9 7.65e-02 1.00e+00h  1
 335 -2.6287632e-01 5.31e-02 5.90e+01  -7.5 3.51e+02  -9.3 7.61e-01 7.40e-02h  1
 336 -2.6298047e-01 4.04e+00 2.04e+01  -7.5 2.05e+03    -  5.38e-01 6.54e-01h  1
 337 -2.6298130e-01 4.03e+00 2.03e+01  -7.5 1.37e+03    -  9.66e-02 2.83e-03h  1
 338 -2.6304305e-01 2.87e+00 1.19e+01  -7.5 2.01e+03    -  1.68e-01 4.14e-01f  1
 339 -2.6304108e-01 2.81e+00 1.17e+01  -7.5 2.72e+03    -  1.72e-02 2.12e-02h  4
iter    objective    inf_pr   inf_du lg(mu)  ||d||  lg(rg) alpha_du alpha_pr  ls
 340 -2.6304013e-01 2.70e+00 1.11e+01  -7.5 1.42e+02  -9.8 1.00e+00 4.14e-02h  1
 341 -2.6303920e-01 2.56e+00 1.06e+01  -7.5 1.43e+03    -  2.01e-01 5.09e-02h  5
 342 -2.6303525e-01 2.17e+00 8.83e+00  -7.5 8.69e+02    -  1.59e-01 1.65e-01h  3
 343 -2.6300818e-01 2.63e+00 1.68e-01  -7.5 2.32e+02    -  8.02e-01 1.00e+00h  1
 344 -2.6300342e-01 2.71e-01 3.92e-02  -7.5 5.79e+01    -  4.50e-01 9.46e-01h  1
 345 -2.6300191e-01 1.24e-01 1.47e-02  -7.5 3.54e+01    -  1.00e+00 1.00e+00h  1
 346 -2.6300237e-01 4.38e-02 4.28e-03  -7.5 2.43e+01    -  1.00e+00 1.00e+00h  1
 347 -2.6300255e-01 5.09e-04 6.09e-04  -7.5 4.53e+00    -  1.00e+00 1.00e+00h  1
 348 -2.6300259e-01 2.38e-05 3.03e-05  -7.5 9.98e-01    -  1.00e+00 1.00e+00h  1
 349 -2.6300259e-01 8.19e-08 1.04e-07  -7.5 5.87e-02    -  1.00e+00 1.00e+00h  1
iter    objective    inf_pr   inf_du lg(mu)  ||d||  lg(rg) alpha_du alpha_pr  ls
 350 -2.6300439e-01 1.33e-02 5.64e+00  -9.0 4.33e+02    -  6.91e-01 7.80e-02h  1
 351 -2.6300572e-01 2.11e-03 1.32e+00  -9.0 9.78e-02  -5.8 9.83e-01 8.41e-01h  1
 352 -2.6300603e-01 4.99e-04 3.18e-01  -9.0 3.50e-01  -6.3 1.00e+00 7.64e-01h  1
 353 -2.6300628e-01 2.73e-04 1.74e-01  -9.0 1.07e+00  -6.7 1.00e+00 4.52e-01f  1
 354 -2.6300681e-01 1.33e-04 8.48e-02  -9.0 3.52e+00  -7.2 1.00e+00 5.14e-01f  1
 355 -2.6300686e-01 1.82e-02 8.45e-02  -9.0 1.22e+04    -  2.74e-03 3.24e-03f  1
 356 -2.6300689e-01 5.35e-04 5.64e-03  -9.0 5.37e-01  -7.7 1.00e+00 1.00e+00f  1
 357 -2.6300699e-01 2.65e-03 8.59e-02  -9.0 1.65e+00  -8.2 6.05e-01 7.59e-01h  1
 358 -2.6300706e-01 4.05e-03 3.04e-01  -9.0 5.28e+00  -8.6 1.00e+00 2.22e-01f  1
 359 -2.6300721e-01 3.77e-01 2.93e-01  -9.0 6.09e+03    -  4.79e-01 2.96e-02h  1
iter    objective    inf_pr   inf_du lg(mu)  ||d||  lg(rg) alpha_du alpha_pr  ls
 360 -2.6300938e-01 3.55e-01 1.95e-01  -9.0 2.07e+02    -  1.00e+00 1.00e+00h  1
 361 -2.6300835e-01 5.61e-03 3.31e-02  -9.0 8.53e+00    -  1.00e+00 1.00e+00h  1
 362 -2.6300835e-01 1.39e-06 7.08e-03  -9.0 7.93e-02    -  1.00e+00 1.00e+00h  1
 363 -2.6300835e-01 1.22e-08 5.86e-04  -9.0 2.98e-03    -  1.00e+00 1.00e+00h  1
 364 -2.6300835e-01 2.88e-10 4.35e-07  -9.0 3.36e-05    -  1.00e+00 1.00e+00h  1
 365 -2.6300835e-01 2.83e-10 2.88e-12  -9.0 1.87e-07    -  1.00e+00 1.00e+00h  1

Number of Iterations....: 365

                                   (scaled)                 (unscaled)
Objective...............:  -2.6300834517932153e-01   -2.6300834517932153e-01
Dual infeasibility......:   2.8763658121988556e-12    2.8763658121988556e-12
Constraint violation....:   2.8285781952363392e-10    2.8285781952363392e-10
Complementarity.........:   9.0909090913461598e-10    9.0909090913461598e-10
Overall NLP error.......:   9.0909090913461598e-10    9.0909090913461598e-10


Number of objective function evaluations             = 463
Number of objective gradient evaluations             = 364
Number of equality constraint evaluations            = 463
Number of inequality constraint evaluations          = 464
Number of equality constraint Jacobian evaluations   = 377
Number of inequality constraint Jacobian evaluations = 377
Number of Lagrangian Hessian evaluations             = 365
Total CPU secs in IPOPT (w/o function evaluations)   =    798.306
Total CPU secs in NLP function evaluations           =     15.018

EXIT: Optimal Solution Found.
